c random clauses
p cnf 11 7
-11 -9 -7 -2 -1 3 4 8 0
-11 -7 -6 -1 2 3 4 8 0
-10 -8 -6 -3 -2 4 5 7 0
-9 -7 -4 -3 -2 1 6 8 0
-9 -2 1 3 6 7 10 11 0
-8 -4 -3 1 2 6 10 11 0
-4 -2 1 3 5 8 10 11 0
-6 -2 -1 4 5 7 9 10 0
